 vasp.5.4.4.18Apr17-6-g9f103f2a35 (build Jan 09 2020 16:07:50) complex

 executed on             LinuxIFC date 2020.07.28  13:08:18

 INCAR:
 POTCAR:    PAW_PBE Si 05Jan2001

 POTCAR:    PAW_PBE Si 05Jan2001
   VRHFIN =Si: s2p2

   TITEL  = PAW_PBE Si 05Jan2001
   POMASS =   28.085; ZVAL   =    4.000    mass and valenz
   ENMAX  =  245.345; ENMIN  =  184.009 eV

  PAW_PBE Si 05Jan2001                  :

 POSCAR:  Si
  positions in direct lattice
 exchange correlation table for  LEXCH =        8
   RHO(1)=    0.500       N(1)  =     2000
   RHO(2)=  100.500       N(2)  =     4000

 ion  position               nearest neighbor table
   1  0.250  0.250  0.250-   2 2.37   2 2.37   2 2.37   2 2.37
   2  0.000  0.000  0.000-   1 2.37   1 2.37   1 2.37   1 2.37

  LATTYP: Found a face centered cubic cell.
 ALAT       =     5.4680849983

  Lattice vectors:

 A1 = (   0.0000000000,   2.7340424991,   2.7340424991)
 A2 = (   2.7340424991,   0.0000000000,   2.7340424991)
 A3 = (   2.7340424991,   2.7340424991,   0.0000000000)

Analysis of symmetry for initial positions (statically):
 Subroutine PRICEL returns:
 Original cell was already a primitive cell.

 Routine SETGRP: Setting up the symmetry group for a
 face centered cubic supercell.

 Subroutine GETGRP returns: Found 48 space group operations
 (whereof 24 operations were pure point group operations)
 out of a pool of 48 trial point group operations.

The static configuration has the point symmetry T_d .
 The point group associated with its full space group is O_h .

Analysis of symmetry for dynamics (positions and initial velocities):
 Subroutine PRICEL returns:
 Original cell was already a primitive cell.

 Routine SETGRP: Setting up the symmetry group for a
 face centered cubic supercell.

 Subroutine GETGRP returns: Found 48 space group operations
 (whereof 24 operations were pure point group operations)
 out of a pool of 48 trial point group operations.

The dynamic configuration has the point symmetry T_d .
 The point group associated with its full space group is O_h .

 Subroutine INISYM returns: Found 48 space group operations
 (whereof 24 operations are pure point group operations),
 and found     1 'primitive' translations

 KPOINTS: Automatic mesh

Automatic generation of k-mesh.
Space group operators:
 irot       det(A)        alpha          n_x          n_y          n_z        tau_x        tau_y        tau_z
    1     1.000000     0.000001     1.000000     0.000000     0.000000     0.000000     0.000000     0.000000
    2     1.000000   120.000000    -0.577350    -0.577350    -0.577350     0.000000     0.000000     0.000000
    3     1.000000   120.000000     0.577350     0.577350     0.577350     0.000000     0.000000     0.000000
    4    -1.000000    90.000000     0.000000     0.000000    -1.000000     0.000000     0.000000     0.000000
    5    -1.000000   180.000000     0.000000     0.707107     0.707107     0.000000     0.000000     0.000000
    6    -1.000000    90.000000     0.000000     1.000000     0.000000     0.000000     0.000000     0.000000
    7     1.000000   180.000000     0.000000     0.000000     1.000000     0.000000     0.000000     0.000000
    8     1.000000   120.000000    -0.577350     0.577350     0.577350     0.000000     0.000000     0.000000
    9     1.000000   120.000000    -0.577350     0.577350    -0.577350     0.000000     0.000000     0.000000
   10    -1.000000    90.000000     0.000000     0.000000     1.000000     0.000000     0.000000     0.000000
   11    -1.000000    90.000000    -1.000000     0.000000     0.000000     0.000000     0.000000     0.000000
   12    -1.000000   180.000000     0.707107     0.000000     0.707107     0.000000     0.000000     0.000000
   13     1.000000   120.000000     0.577350    -0.577350     0.577350     0.000000     0.000000     0.000000
   14     1.000000   120.000000    -0.577350    -0.577350     0.577350     0.000000     0.000000     0.000000
   15     1.000000   180.000000     1.000000     0.000000     0.000000     0.000000     0.000000     0.000000
   16    -1.000000    90.000000     0.000000    -1.000000     0.000000     0.000000     0.000000     0.000000
   17    -1.000000   180.000000     0.707107     0.707107     0.000000     0.000000     0.000000     0.000000
   18    -1.000000    90.000000     1.000000     0.000000     0.000000     0.000000     0.000000     0.000000
   19     1.000000   120.000000     0.577350    -0.577350    -0.577350     0.000000     0.000000     0.000000
   20     1.000000   180.000000     0.000000     1.000000     0.000000     0.000000     0.000000     0.000000
   21     1.000000   120.000000     0.577350     0.577350    -0.577350     0.000000     0.000000     0.000000
   22    -1.000000   180.000000     0.000000    -0.707107     0.707107     0.000000     0.000000     0.000000
   23    -1.000000   180.000000     0.707107    -0.707107     0.000000     0.000000     0.000000     0.000000
   24    -1.000000   180.000000     0.707107     0.000000    -0.707107     0.000000     0.000000     0.000000
   25    -1.000000     0.000001     1.000000     0.000000     0.000000     0.250000     0.250000     0.250000
   26    -1.000000   120.000000    -0.577350    -0.577350    -0.577350     0.250000     0.250000     0.250000
   27    -1.000000   120.000000     0.577350     0.577350     0.577350     0.250000     0.250000     0.250000
   28     1.000000    90.000000     0.000000     0.000000    -1.000000     0.250000     0.250000     0.250000
   29     1.000000   180.000000     0.000000     0.707107     0.707107     0.250000     0.250000     0.250000
   30     1.000000    90.000000     0.000000     1.000000     0.000000     0.250000     0.250000     0.250000
   31    -1.000000   180.000000     0.000000     0.000000     1.000000     0.250000     0.250000     0.250000
   32    -1.000000   120.000000    -0.577350     0.577350     0.577350     0.250000     0.250000     0.250000
   33    -1.000000   120.000000    -0.577350     0.577350    -0.577350     0.250000     0.250000     0.250000
   34     1.000000    90.000000     0.000000     0.000000     1.000000     0.250000     0.250000     0.250000
   35     1.000000    90.000000    -1.000000     0.000000     0.000000     0.250000     0.250000     0.250000
   36     1.000000   180.000000     0.707107     0.000000     0.707107     0.250000     0.250000     0.250000
   37    -1.000000   120.000000     0.577350    -0.577350     0.577350     0.250000     0.250000     0.250000
   38    -1.000000   120.000000    -0.577350    -0.577350     0.577350     0.250000     0.250000     0.250000
   39    -1.000000   180.000000     1.000000     0.000000     0.000000     0.250000     0.250000     0.250000
   40     1.000000    90.000000     0.000000    -1.000000     0.000000     0.250000     0.250000     0.250000
   41     1.000000   180.000000     0.707107     0.707107     0.000000     0.250000     0.250000     0.250000
   42     1.000000    90.000000     1.000000     0.000000     0.000000     0.250000     0.250000     0.250000
   43    -1.000000   120.000000     0.577350    -0.577350    -0.577350     0.250000     0.250000     0.250000
   44    -1.000000   180.000000     0.000000     1.000000     0.000000     0.250000     0.250000     0.250000
   45    -1.000000   120.000000     0.577350     0.577350    -0.577350     0.250000     0.250000     0.250000
   46     1.000000   180.000000     0.000000    -0.707107     0.707107     0.250000     0.250000     0.250000
   47     1.000000   180.000000     0.707107    -0.707107     0.000000     0.250000     0.250000     0.250000
   48     1.000000   180.000000     0.707107     0.000000    -0.707107     0.250000     0.250000     0.250000

 Subroutine IBZKPT returns following result:

 Found     35 irreducible k-points:

 Following reciprocal coordinates:
            Coordinates               Weight
  0.000000  0.000000  0.000000      1.000000
  0.111111  0.000000  0.000000      8.000000
  0.222222  0.000000  0.000000      8.000000
  0.333333  0.000000  0.000000      8.000000
  0.444444  0.000000  0.000000      8.000000
  0.111111  0.111111  0.000000      6.000000
  0.222222  0.111111  0.000000     24.000000
  0.333333  0.111111  0.000000     24.000000
  0.444444  0.111111  0.000000     24.000000
 -0.444444  0.111111  0.000000     24.000000
 -0.333333  0.111111  0.000000     24.000000
 -0.222222  0.111111  0.000000     24.000000
 -0.111111  0.111111  0.000000     12.000000
  0.222222  0.222222  0.000000      6.000000
  0.333333  0.222222  0.000000     24.000000
  0.444444  0.222222  0.000000     24.000000
 -0.444444  0.222222  0.000000     24.000000
 -0.333333  0.222222  0.000000     24.000000
 -0.222222  0.222222  0.000000     12.000000
  0.333333  0.333333  0.000000      6.000000
  0.444444  0.333333  0.000000     24.000000
 -0.444444  0.333333  0.000000     24.000000
 -0.333333  0.333333  0.000000     12.000000
  0.444444  0.444444  0.000000      6.000000
 -0.444444  0.444444  0.000000     12.000000
  0.333333  0.222222  0.111111     24.000000
  0.444444  0.222222  0.111111     48.000000
 -0.444444  0.222222  0.111111     48.000000
  0.444444  0.333333  0.111111     24.000000
 -0.444444  0.333333  0.111111     48.000000
 -0.333333  0.333333  0.111111     48.000000
 -0.222222  0.333333  0.111111     24.000000
 -0.444444  0.444444  0.111111     24.000000
 -0.333333  0.444444  0.111111     24.000000
 -0.333333  0.444444  0.222222     24.000000

 Following cartesian coordinates:
            Coordinates               Weight
  0.000000  0.000000  0.000000      1.000000
 -0.020320  0.020320  0.020320      8.000000
 -0.040640  0.040640  0.040640      8.000000
 -0.060960  0.060960  0.060960      8.000000
 -0.081280  0.081280  0.081280      8.000000
  0.000000  0.000000  0.040640      6.000000
 -0.020320  0.020320  0.060960     24.000000
 -0.040640  0.040640  0.081280     24.000000
 -0.060960  0.060960  0.101600     24.000000
  0.101600 -0.101600 -0.060960     24.000000
  0.081280 -0.081280 -0.040640     24.000000
  0.060960 -0.060960 -0.020320     24.000000
  0.040640 -0.040640  0.000000     12.000000
  0.000000  0.000000  0.081280      6.000000
 -0.020320  0.020320  0.101600     24.000000
 -0.040640  0.040640  0.121920     24.000000
  0.121920 -0.121920 -0.040640     24.000000
  0.101600 -0.101600 -0.020320     24.000000
  0.081280 -0.081280  0.000000     12.000000
  0.000000  0.000000  0.121920      6.000000
 -0.020320  0.020320  0.142240     24.000000
  0.142240 -0.142240 -0.020320     24.000000
  0.121920 -0.121920  0.000000     12.000000
  0.000000  0.000000  0.162559      6.000000
  0.162559 -0.162559  0.000000     12.000000
  0.000000  0.040640  0.081280     24.000000
 -0.020320  0.060960  0.101600     48.000000
  0.142240 -0.101600 -0.060960     48.000000
 -0.000000  0.040640  0.121920     24.000000
  0.162559 -0.121920 -0.040640     48.000000
  0.142240 -0.101600 -0.020320     48.000000
  0.121920 -0.081280  0.000000     24.000000
  0.182879 -0.142240 -0.020320     24.000000
  0.162559 -0.121920  0.000000     24.000000
  0.182879 -0.101600 -0.020320     24.000000

 SYSTEM =  unknown system
 POSCAR =   Si

 Startparameter for this run:
   NWRITE =      2    write-flag & timer
[...]

   TIME   =   0.40     timestep for ELM

  volume/ion in A,a.u.               =      20.44       137.92
  Fermi-wavevector in a.u.,A,eV,Ry     =   0.950509  1.796202 12.292420  0.903467
  Thomas-Fermi vector in A             =   2.078892

 Write flags
   LWAVE        =      T    write WAVECAR
   LDOWNSAMPLE  =      F    k-point downsampling of WAVECAR
   LCHARG       =      T    write CHGCAR
   LVTOT        =      F    write LOCPOT, total local potential
   LVHAR        =      F    write LOCPOT, Hartree potential only
   LELF         =      F    write electronic localiz. function (ELF)
   LORBIT       =     11    0 simple, 1 ext, 2 COOP (PROOUT), +10 PAW based schemes

 Dipole corrections
   LMONO  =      F    monopole corrections only (constant potential shift)
   LDIPOL =      F    correct potential (dipole corrections)
   IDIPOL =      0    1-x, 2-y, 3-z, 4-all directions
   EPSILON=  1.0000000 bulk dielectric constant

 Exchange correlation treatment:
   GGA     =    --    GGA type
   VOSKOWN=      0    Vosko Wilk Nusair interpolation
   LHFCALC =     F    Hartree Fock is set to
   LHFONE  =     F    Hartree Fock one center treatment
   AEXX    =    0.0000 exact exchange contribution

 Linear response parameters
   LEPSILON=     F    determine dielectric tensor
   LRPA    =     F    only Hartree local field effects (RPA)
   LNABLA  =     F    use nabla operator in PAW spheres
   LVEL    =     F    velocity operator in full k-point grid
   LINTERFAST=   F  fast interpolation
   KINTER  =     0    interpolate to denser k-point grid
   CSHIFT  =0.1000    complex shift for real part using Kramers Kronig
   OMEGAMAX=  -1.0    maximum frequency
   DEG_THRESHOLD= 0.2000000E-02 threshold for treating states as degnerate
   RTIME   =   -0.100 relaxation time in fs
  (WPLASMAI=    0.000 imaginary part of plasma frequency in eV, 0.658/RTIME)
   DFIELD  = 0.0000000 0.0000000 0.0000000 field for delta impulse in time

 Orbital magnetization related:
   ORBITALMAG=     F  switch on orbital magnetization
   LCHIMAG   =     F  perturbation theory with respect to B field
   DQ        =  0.001000  dq finite difference perturbation B field
   LLRAUG    =     F  two centre corrections for induced B field

 Static calculation
 charge density and potential remain constant during run
 non-spin polarized calculation
 Variant of blocked Davidson
 Davidson routine will perform the subspace rotation
 perform sub-space diagonalisation
    after iterative eigenvector-optimisation
 no mixing
 using additional bands           12
 reciprocal scheme for non local part
 use partial core corrections
 calculate Harris-corrections to forces
   (improved forces if not selfconsistent)
 use gradient corrections
 WARNING: stress and forces are not correct
  (second derivative of E(xc) not defined)
 use of overlap-Matrix (Vanderbilt PP)
 Gauss-broadening in eV      SIGMA  =   0.05

  energy-cutoff  :      383.00
  volume of cell :       40.87
      direct lattice vectors                 reciprocal lattice vectors
     0.000000000  2.734042499  2.734042499    -0.182879381  0.182879381  0.182879381
     2.734042499  0.000000000  2.734042499     0.182879381 -0.182879381  0.182879381
     2.734042499  2.734042499  0.000000000     0.182879381  0.182879381 -0.182879381

  length of vectors
     3.866519982  3.866519982  3.866519982     0.316756380  0.316756380  0.316756380

 k-points in units of 2pi/SCALE and weight: Automatic mesh
   0.00000000  0.00000000  0.00000000       0.001
  -0.02031993  0.02031993  0.02031993       0.011
  -0.04063986  0.04063986  0.04063986       0.011
  -0.06095979  0.06095979  0.06095979       0.011
  -0.08127972  0.08127972  0.08127972       0.011
   0.00000000  0.00000000  0.04063986       0.008
  -0.02031993  0.02031993  0.06095979       0.033
  -0.04063986  0.04063986  0.08127972       0.033
  -0.06095979  0.06095979  0.10159966       0.033
   0.10159966 -0.10159966 -0.06095979       0.033
   0.08127972 -0.08127972 -0.04063986       0.033
   0.06095979 -0.06095979 -0.02031993       0.033
   0.04063986 -0.04063986  0.00000000       0.016
   0.00000000  0.00000000  0.08127972       0.008
  -0.02031993  0.02031993  0.10159966       0.033
  -0.04063986  0.04063986  0.12191959       0.033
   0.12191959 -0.12191959 -0.04063986       0.033
   0.10159966 -0.10159966 -0.02031993       0.033
   0.08127972 -0.08127972  0.00000000       0.016
   0.00000000  0.00000000  0.12191959       0.008
  -0.02031993  0.02031993  0.14223952       0.033
   0.14223952 -0.14223952 -0.02031993       0.033
   0.12191959 -0.12191959  0.00000000       0.016
   0.00000000  0.00000000  0.16255945       0.008
   0.16255945 -0.16255945  0.00000000       0.016
   0.00000000  0.04063986  0.08127972       0.033
  -0.02031993  0.06095979  0.10159966       0.066
   0.14223952 -0.10159966 -0.06095979       0.066
  -0.00000000  0.04063986  0.12191959       0.033
   0.16255945 -0.12191959 -0.04063986       0.066
   0.14223952 -0.10159966 -0.02031993       0.066
   0.12191959 -0.08127972  0.00000000       0.033
   0.18287938 -0.14223952 -0.02031993       0.033
   0.16255945 -0.12191959  0.00000000       0.033
   0.18287938 -0.10159966 -0.02031993       0.033

 k-points in reciprocal lattice and weights: Automatic mesh
   0.00000000  0.00000000  0.00000000       0.001
   0.11111111  0.00000000  0.00000000       0.011
   0.22222222  0.00000000  0.00000000       0.011
   0.33333333  0.00000000  0.00000000       0.011
   0.44444444  0.00000000  0.00000000       0.011
   0.11111111  0.11111111  0.00000000       0.008
   0.22222222  0.11111111  0.00000000       0.033
   0.33333333  0.11111111  0.00000000       0.033
   0.44444444  0.11111111  0.00000000       0.033
  -0.44444444  0.11111111  0.00000000       0.033
  -0.33333333  0.11111111  0.00000000       0.033
  -0.22222222  0.11111111  0.00000000       0.033
  -0.11111111  0.11111111  0.00000000       0.016
   0.22222222  0.22222222  0.00000000       0.008
   0.33333333  0.22222222  0.00000000       0.033
   0.44444444  0.22222222  0.00000000       0.033
  -0.44444444  0.22222222  0.00000000       0.033
  -0.33333333  0.22222222  0.00000000       0.033
  -0.22222222  0.22222222  0.00000000       0.016
   0.33333333  0.33333333  0.00000000       0.008
   0.44444444  0.33333333  0.00000000       0.033
  -0.44444444  0.33333333  0.00000000       0.033
  -0.33333333  0.33333333  0.00000000       0.016
   0.44444444  0.44444444  0.00000000       0.008
  -0.44444444  0.44444444  0.00000000       0.016
   0.33333333  0.22222222  0.11111111       0.033
   0.44444444  0.22222222  0.11111111       0.066
  -0.44444444  0.22222222  0.11111111       0.066
   0.44444444  0.33333333  0.11111111       0.033
  -0.44444444  0.33333333  0.11111111       0.066
  -0.33333333  0.33333333  0.11111111       0.066
  -0.22222222  0.33333333  0.11111111       0.033
  -0.44444444  0.44444444  0.11111111       0.033
  -0.33333333  0.44444444  0.11111111       0.033
  -0.33333333  0.44444444  0.22222222       0.033

 position of ions in fractional coordinates (direct lattice)
   0.25000000  0.25000000  0.25000000
   0.00000000  0.00000000  0.00000000

 position of ions in cartesian coordinates  (Angst):
   1.36702125  1.36702125  1.36702125
   0.00000000  0.00000000  0.00000000

 k-point  1 :   0.0000 0.0000 0.0000  plane waves:     725
 k-point  2 :   0.1111 0.0000 0.0000  plane waves:     697
 k-point  3 :   0.2222 0.0000 0.0000  plane waves:     691
 k-point  4 :   0.3333 0.0000 0.0000  plane waves:     697
 k-point  5 :   0.4444 0.0000 0.0000  plane waves:     700
 k-point  6 :   0.1111 0.1111 0.0000  plane waves:     693
 k-point  7 :   0.2222 0.1111 0.0000  plane waves:     687
 k-point  8 :   0.3333 0.1111 0.0000  plane waves:     690
 k-point  9 :   0.4444 0.1111 0.0000  plane waves:     705
 k-point 10 :  -0.4444 0.1111 0.0000  plane waves:     695
 k-point 11 :  -0.3333 0.1111 0.0000  plane waves:     697
 k-point 12 :  -0.2222 0.1111 0.0000  plane waves:     691
 k-point 13 :  -0.1111 0.1111 0.0000  plane waves:     690
 k-point 14 :   0.2222 0.2222 0.0000  plane waves:     693
 k-point 15 :   0.3333 0.2222 0.0000  plane waves:     695
 k-point 16 :   0.4444 0.2222 0.0000  plane waves:     696
 k-point 17 :  -0.4444 0.2222 0.0000  plane waves:     696
 k-point 18 :  -0.3333 0.2222 0.0000  plane waves:     688
 k-point 19 :  -0.2222 0.2222 0.0000  plane waves:     688
 k-point 20 :   0.3333 0.3333 0.0000  plane waves:     693
 k-point 21 :   0.4444 0.3333 0.0000  plane waves:     687
 k-point 22 :  -0.4444 0.3333 0.0000  plane waves:     700
 k-point 23 :  -0.3333 0.3333 0.0000  plane waves:     702
 k-point 24 :   0.4444 0.4444 0.0000  plane waves:     700
 k-point 25 :  -0.4444 0.4444 0.0000  plane waves:     702
 k-point 26 :   0.3333 0.2222 0.1111  plane waves:     692
 k-point 27 :   0.4444 0.2222 0.1111  plane waves:     698
 k-point 28 :  -0.4444 0.2222 0.1111  plane waves:     696
 k-point 29 :   0.4444 0.3333 0.1111  plane waves:     694
 k-point 30 :  -0.4444 0.3333 0.1111  plane waves:     696
 k-point 31 :  -0.3333 0.3333 0.1111  plane waves:     698
 k-point 32 :  -0.2222 0.3333 0.1111  plane waves:     696
 k-point 33 :  -0.4444 0.4444 0.1111  plane waves:     695
 k-point 34 :  -0.3333 0.4444 0.1111  plane waves:     702
 k-point 35 :  -0.3333 0.4444 0.2222  plane waves:     704

 maximum and minimum number of plane-waves per node :       725      687

 maximum number of plane-waves:       725
 maximum index in each direction:
   IXMAX=    6   IYMAX=    6   IZMAX=    6
   IXMIN=   -6   IYMIN=   -6   IZMIN=   -6

 serial   3D FFT for wavefunctions
 parallel 3D FFT for charge:
    minimum data exchange during FFTs selected (reduces bandwidth)

 initial charge density was supplied:
 number of electron       8.0000001 magnetization
 keeping initial charge density in first step

 Maximum index for augmentation-charges          604 (set IRDMAX)

 First call to EWALD:  gamma=   0.515
 Maximum number of real-space cells 3x 3x 3
 Maximum number of reciprocal cells 3x 3x 3

--------------------------------------- Iteration      1(   1)  ---------------------------------------

 eigenvalue-minimisations  :  1120
 total energy-change (2. order) :-0.3376759E+01  (-0.2908988E+03)
 number of electron       8.0000001 magnetization
 augmentation part        8.0000001 magnetization

 Free energy of the ion-electron system (eV)
  alpha Z        PSCENC =         3.29434225
  Ewald energy   TEWEN  =      -226.97158891
  -Hartree energ DENC   =       -15.17588233
  -exchange      EXHF   =         0.00000000
  -V(xc)+E(xc)   XCENC  =       -18.05649863
  PAW double counting   =       830.41508978     -795.43446129
  entropy T*S    EENTRO =        -0.00024007
  eigenvalues    EBANDS =        12.42106025
  atomic energy  EATOM  =       206.13141953
  Solvation  Ediel_sol  =         0.00000000
  free energy    TOTEN  =        -3.37675941 eV

  energy without entropy =       -3.37651934  energy(sigma->0) =       -3.37663937

[...]

--------------------------------------- Iteration      1(   6)  ---------------------------------------

 eigenvalue-minimisations  :  2128
 total energy-change (2. order) :-0.5684342E-11  (-0.5718588E-11)
 number of electron       8.0000001 magnetization
 augmentation part        8.0000001 magnetization

 Free energy of the ion-electron system (eV)
  alpha Z        PSCENC =         3.29434225
  Ewald energy   TEWEN  =      -226.97158891
  -Hartree energ DENC   =       -15.17588233
  -exchange      EXHF   =         0.00000000
  -V(xc)+E(xc)   XCENC  =       -18.05649863
  PAW double counting   =       830.41508978     -795.43446129
  entropy T*S    EENTRO =        -0.00000000
  eigenvalues    EBANDS =         4.94989816
  atomic energy  EATOM  =       206.13141953
  Solvation  Ediel_sol  =         0.00000000
  free energy    TOTEN  =       -10.84768142 eV

  energy without entropy =      -10.84768142  energy(sigma->0) =      -10.84768142

 average (electrostatic) potential at core
  the test charge radii are     0.9892
  (the norm of the test charge is              1.0000)
       1 -83.4754       2 -83.4754

 E-fermi :   5.9354     XC(G=0):  -9.3282     alpha+bet :-11.7359

 k-point     1 :       0.0000    0.0000    0.0000
  band No.  band energies     occupation
      1      -6.1967      2.00000
      2       5.6207      2.00000
      3       5.6207      2.00000
      4       5.6207      2.00000
      5       8.1776      0.00000
      6       8.1776      0.00000
      7       8.1776      0.00000
      8       8.7585      0.00000
      9      13.3321      0.00000
     10      13.3321      0.00000
     11      13.4993      0.00000
     12      16.8048      0.00000
     13      16.8048      0.00000
     14      16.8048      0.00000
     15      20.8966      0.00000
     16      28.4881      0.00000

[...]

 k-point    35 :      -0.3333    0.4444    0.2222
  band No.  band energies     occupation
      1      -2.5573      2.00000
      2      -1.4155      2.00000
      3       1.6581      2.00000
      4       2.2876      2.00000
      5       9.4583      0.00000
      6       9.5694      0.00000
      7      10.1946      0.00000
      8      11.9337      0.00000
      9      14.9434      0.00000
     10      16.3694      0.00000
     11      18.1543      0.00000
     12      19.5160      0.00000
     13      20.8619      0.00000
     14      22.2091      0.00000
     15      22.6147      0.00000
     16      23.8867      0.00000

 soft charge-density along one line, spin component           1
         0         1         2         3         4         5         6         7         8         9
 total charge-density along one line

------------------------ aborting loop because EDIFF is reached ----------------------------------------

 total charge

# of ion       s       p       d       tot
    1        0.751   0.929   0.000   1.679
    2        0.751   0.929   0.000   1.679
tot          1.501   1.857   0.000   3.359

  FORCE on cell =-STRESS in cart. coord.  units (eV):
  Direction    XX          YY          ZZ          XY          YZ          ZX
  Alpha Z     3.29434     3.29434     3.29434
  Ewald     -75.65723   -75.65723   -75.65723    -0.00000    -0.00000    -0.00000
  Hartree     5.05712     5.05712     5.05712     0.00000     0.00000     0.00000
  E(xc)     -25.24927   -25.24927   -25.24927    -0.00000    -0.00000    -0.00000
  Local     -29.51854   -29.51854   -29.51854     0.00002     0.00002     0.00002
  n-local    78.53211    79.77869    74.07266     2.19250    -1.23629     0.56989
  augment   -11.64687   -11.64687   -11.64687    -0.00002    -0.00002    -0.00002
  Kinetic    58.35456    55.90955    54.51342     3.55122    -0.71294     1.01253
  Fock        0.00000     0.00000     0.00000     0.00000     0.00000     0.00000
  Total      -0.00013    -0.00013    -0.00013     0.00000     0.00000     0.00000
  in kB      -0.00503    -0.00503    -0.00503     0.00000     0.00000     0.00000

 VOLUME and BASIS-vectors are now :
  energy-cutoff  :      383.00
  volume of cell :       40.87
      direct lattice vectors                 reciprocal lattice vectors
     0.000000000  2.734042499  2.734042499    -0.182879381  0.182879381  0.182879381
     2.734042499  0.000000000  2.734042499     0.182879381 -0.182879381  0.182879381
     2.734042499  2.734042499  0.000000000     0.182879381  0.182879381 -0.182879381

  length of vectors
     3.866519982  3.866519982  3.866519982     0.316756380  0.316756380  0.316756380

 FORCES acting on ions
    electron-ion (+dipol)            ewald-force                    non-local-force                 convergence-correction
   -.879E-06 -.879E-06 -.935E-06   -.524E-14 -.609E-14 -.211E-15   -.486E-16 -.625E-16 -.694E-17   -.197E-09 -.197E-09 -.198E-09
   0.879E-06 0.879E-06 0.935E-06   0.551E-14 0.634E-14 0.240E-15   0.486E-16 0.555E-16 0.451E-16   0.197E-09 0.197E-09 0.198E-09
   0.463E-13 0.339E-13 0.330E-13   0.278E-15 0.252E-15 0.297E-16   0.000E+00 -.694E-17 0.382E-16   -.335E-14 -.276E-14 0.717E-15

 POSITION                                       TOTAL-FORCE (eV/Angst)
      1.36702      1.36702      1.36702        -0.000000     -0.000000     -0.000000
      0.00000      0.00000      0.00000         0.000000      0.000000      0.000000
    total drift:                                0.000000      0.000000      0.000000

  FREE ENERGIE OF THE ION-ELECTRON SYSTEM (eV)
  free  energy   TOTEN  =       -10.84768142 eV

  energy  without entropy=      -10.84768142  energy(sigma->0) =      -10.84768142

 writing wavefunctions

 total charge

# of ion       s       p       d       tot
    1        0.751   0.929   0.000   1.679
    2        0.751   0.929   0.000   1.679
tot          1.501   1.857   0.000   3.359